row=9;
column=9;
Board=[|0,0,3,0,8,4,0,5,1|7,0,0,3,0,0,6,0,8|0,0,1,0,0,0,0,4,0|0,0,0,0,0,0,0,7,0|0,0,0,0,0,0,1,0,7|0,0,0,0,6,5,4,0,2|9,0,8,0,0,0,0,0,4|5,1,7,4,0,0,3,0,0|0,0,6,0,0,0,0,0,0|];
Region=[|1,1,1,2,2,2,3,3,3|1,1,1,2,2,2,3,3,3|4,1,1,2,2,5,6,3,3|4,1,4,2,5,5,6,3,6|4,4,4,5,5,5,6,6,6|4,4,4,5,5,5,6,6,6|7,7,8,8,8,8,9,9,9|7,7,7,8,8,8,9,9,9|7,7,7,7,8,8,9,9,9|];
horizontal=[|0,0,0,1,0,0,0,0|0,1,1,0,0,0,0,0|0,0,1,0,0,1,0,1|0,0,0,0,1,0,0,0|1,0,0,0,0,0,0,1|1,0,0,0,1,1,1,1|0,0,0,0,0,1,0,0|0,0,0,0,0,1,0,0|1,0,0,1,0,1,0,0|];
vertical=[|0,1,1,0,0,0,0,0,0|1,0,0,1,0,0,0,0,0|0,1,1,0,1,0,0,0,0|0,0,0,0,0,0,0,1,0|0,0,0,0,0,0,0,0,0|1,0,1,0,0,1,0,0,0|0,1,1,1,0,0,0,0,0|0,0,1,0,0,1,1,1,1|];
